30
1 0 36
2 0 16
2 1 30
3 0 16
3 1 16
3 2 40
4 1 21
4 2 4
5 0 6
5 1 12
5 2 22
5 3 29
5 4 27
6 1 24
6 2 20
6 3 25
7 0 30
7 1 23
7 3 38
7 4 31
7 5 22
7 6 40
8 0 8
8 1 3
8 2 3
8 3 14
8 4 3
8 5 28
8 6 25
8 7 31
9 0 34
9 2 33
9 3 10
9 5 13
9 6 1
9 7 23
9 8 23
10 0 31
10 1 3
10 2 22
10 3 11
10 4 31
10 5 8
10 6 38
10 7 1
10 8 32
11 0 16
11 1 17
11 2 12
11 3 9
11 4 32
11 5 2
11 6 10
11 7 13
11 8 6
11 9 23
12 0 6
12 1 7
12 2 29
12 3 34
12 4 35
12 5 14
12 6 33
12 7 3
12 8 1
12 9 15
12 10 29
13 0 20
13 1 30
13 2 6
13 3 35
13 4 1
13 5 20
13 6 16
13 7 36
13 8 13
13 9 5
13 10 21
13 11 39
14 0 35
14 1 21
14 2 22
14 3 20
14 4 28
14 5 20
14 6 12
14 8 5
14 9 18
14 10 27
14 11 6
14 12 10
14 13 24
15 0 34
15 1 19
15 2 26
15 3 29
15 4 21
15 5 29
15 6 24
15 7 23
15 8 28
15 9 12
15 10 30
15 11 3
15 12 8
15 13 19
15 14 39
16 0 28
16 2 2
16 3 7
16 4 27
16 5 39
16 6 22
16 7 9
16 8 15
16 9 40
16 10 25
16 11 3
16 12 26
16 13 36
16 14 28
16 15 39
17 0 40
17 1 19
17 2 9
17 3 19
17 4 40
17 5 1
17 6 11
17 7 24
17 8 40
17 9 31
17 10 3
17 11 2
17 12 22
17 13 6
17 14 35
17 15 9
17 16 39
18 0 29
18 1 27
18 2 17
18 3 9
18 4 15
18 5 11
18 6 38
18 7 2
18 8 26
18 9 25
18 10 27
18 11 2
18 12 23
18 13 9
18 14 2
18 15 3
18 16 23
18 17 10
19 0 6
19 2 3
19 3 6
19 4 14
19 5 22
19 6 32
19 7 33
19 8 8
19 9 13
19 10 40
19 11 30
19 12 33
19 13 3
19 14 25
19 15 26
19 16 32
19 17 20
19 18 16
20 0 37
20 2 28
20 3 13
20 4 21
20 5 9
20 6 1
20 7 17
20 8 27
20 9 12
20 10 9
20 11 21
20 12 24
20 13 22
20 14 40
20 15 10
20 16 16
20 18 21
20 19 22
21 0 32
21 1 20
21 2 32
21 3 2
21 4 30
21 5 14
21 6 6
21 8 19
21 9 33
21 10 21
21 11 28
21 12 5
21 13 3
21 14 40
21 15 19
21 16 17
21 17 7
21 18 32
21 19 3
21 20 32
22 0 14
22 1 14
22 2 27
22 3 6
22 4 24
22 5 32
22 6 14
22 7 2
22 8 23
22 9 7
22 10 7
22 11 7
22 12 17
22 13 24
22 14 25
22 15 34
22 16 39
22 17 28
22 18 36
22 19 26
22 20 17
23 0 24
23 1 39
23 2 10
23 3 4
23 5 32
23 6 9
23 7 36
23 8 1
23 10 10
23 11 28
23 12 31
23 13 10
23 14 22
23 15 19
23 16 21
23 17 22
23 18 5
23 19 16
23 22 18
24 0 3
24 2 2
24 3 6
24 4 20
24 5 3
24 6 37
24 7 35
24 8 9
24 9 35
24 10 24
24 11 9
24 12 3
24 13 39
24 14 12
24 15 21
24 16 40
24 17 3
24 18 13
24 19 39
24 20 14
24 21 9
24 22 33
24 23 3
25 0 30
25 1 8
25 2 10
25 3 29
25 4 24
25 5 4
25 6 38
25 7 19
25 8 17
25 9 32
25 10 18
25 11 26
25 12 31
25 13 14
25 14 36
25 15 33
25 16 23
25 17 18
25 18 31
25 19 16
25 22 12
25 23 12
25 24 8
26 0 27
26 1 30
26 2 26
26 3 31
26 4 29
26 5 13
26 6 3
26 7 19
26 8 15
26 9 32
26 10 31
26 11 17
26 12 18
26 13 3
26 14 24
26 15 18
26 16 33
26 17 32
26 18 13
26 19 40
26 21 8
26 23 11
26 24 39
26 25 34
27 0 5
27 1 31
27 2 32
27 3 31
27 4 17
27 5 17
27 6 17
27 7 4
27 8 12
27 9 3
27 10 32
27 11 38
27 12 19
27 13 20
27 14 2
27 15 8
27 16 32
27 18 12
27 19 27
27 20 10
27 22 24
27 23 30
27 25 4
27 26 40
28 0 27
28 1 30
28 2 38
28 3 11
28 4 13
28 5 26
28 6 10
28 7 27
28 8 25
28 9 5
28 10 30
28 11 14
28 12 38
28 13 18
28 14 8
28 15 10
28 16 9
28 17 30
28 18 29
28 19 10
28 20 15
28 21 6
28 22 4
28 25 21
28 26 12
28 27 10
29 0 4
29 2 31
29 3 3
29 4 16
29 5 33
29 6 15
29 7 34
29 8 36
29 11 11
29 12 36
29 13 24
29 14 4
29 15 3
29 16 34
29 17 13
29 18 29
29 19 32
29 20 6
29 22 19
29 24 14
29 25 37
29 27 4
29 28 32
